p wcnf 193 226 227 
1 -90 187 0 
1 -58 4 0 
1 57 -28 0 
1 29 -51 0 
1 -80 -5 0 
1 62 34 0 
1 129 -88 0 
1 -128 -69 0 
1 13 -63 0 
1 97 -55 0 
1 -184 -17 0 
1 -151 -65 0 
1 -20 67 0 
1 -183 -71 0 
1 46 -4 0 
1 152 -111 0 
1 71 -11 0 
1 19 -85 0 
1 -104 -25 0 
1 -20 -136 0 
1 161 -60 0 
1 46 -153 0 
1 -74 -53 0 
1 -34 175 0 
1 -173 2 0 
1 122 -165 0 
1 -162 -88 0 
1 -86 65 0 
1 -37 43 0 
1 -48 -169 0 
1 -181 -111 0 
1 107 33 0 
1 167 -24 0 
1 -13 -125 0 
1 -139 10 0 
1 -2 -192 0 
1 147 181 0 
1 29 -65 0 
1 185 166 0 
1 151 -42 0 
1 -139 171 0 
1 -153 -172 0 
1 -137 -55 0 
1 133 -162 0 
1 -126 -32 0 
1 112 179 0 
1 17 33 0 
1 191 72 0 
1 104 123 0 
1 -117 88 0 
1 93 132 0 
1 -142 -130 0 
1 133 50 0 
1 71 -12 0 
1 8 -124 0 
1 -84 174 0 
1 -37 105 0 
1 8 -171 0 
1 108 -59 0 
1 -92 77 0 
1 3 16 0 
1 -102 -1 0 
1 -154 -19 0 
1 -177 -179 0 
1 84 154 0 
1 -27 -164 0 
1 -74 15 0 
1 -43 132 0 
1 -145 8 0 
1 -95 -142 0 
1 174 140 0 
1 148 56 0 
1 50 -46 0 
1 -100 -76 0 
1 -81 104 0 
1 22 131 0 
1 -60 168 0 
1 129 73 0 
1 85 -8 0 
1 -133 -30 0 
1 -95 94 0 
1 145 -160 0 
1 60 77 0 
1 -6 39 0 
1 -44 -89 0 
1 -128 -184 0 
1 -15 -40 0 
1 -29 -136 0 
1 1 2 0 
1 141 -116 0 
1 31 70 0 
1 -47 -170 0 
1 -10 -88 0 
1 158 -170 0 
1 60 148 0 
1 -169 183 0 
1 30 74 0 
1 161 90 0 
1 94 -92 0 
1 -20 -55 0 
1 -159 182 0 
1 -75 103 0 
1 -178 121 0 
1 9 158 0 
1 192 -74 0 
1 119 -187 0 
1 -135 -152 0 
1 154 72 0 
1 -144 -92 0 
1 -63 169 0 
1 59 -91 0 
1 141 152 0 
1 67 -93 0 
1 38 -85 0 
1 -93 -10 0 
1 -99 96 0 
1 -74 142 0 
1 -116 53 0 
1 -55 110 0 
1 180 105 0 
1 -172 34 0 
1 -14 -77 0 
1 -91 59 0 
1 -48 -38 0 
1 -185 -12 0 
1 -93 154 0 
1 183 54 0 
1 -73 -35 0 
1 -41 63 0 
1 -151 -104 0 
1 -91 135 0 
1 -180 166 0 
1 134 91 0 
1 -148 152 0 
1 -179 -22 0 
1 132 105 0 
1 20 159 0 
1 78 -69 0 
1 33 31 0 
1 96 28 0 
1 35 43 0 
1 -67 -101 0 
1 126 -125 0 
1 71 -145 0 
1 125 76 0 
1 51 -45 0 
1 -171 67 0 
1 128 -49 0 
1 51 20 0 
1 88 190 0 
1 -15 182 0 
1 -77 -60 0 
1 -6 80 0 
1 -27 167 0 
1 48 171 0 
1 -14 75 0 
1 89 114 0 
1 -65 52 0 
1 -88 -100 0 
1 -68 -105 0 
1 -192 41 0 
1 -145 184 0 
1 -106 -180 0 
1 18 -137 0 
1 56 -137 0 
1 -125 130 0 
1 133 -78 0 
1 91 -152 0 
1 -116 -183 0 
1 116 -2 0 
1 -50 105 0 
1 -74 -99 0 
1 192 -48 0 
1 147 -136 0 
1 -13 169 0 
1 144 -70 0 
1 -19 -179 0 
1 20 -92 0 
1 12 11 0 
1 4 57 0 
1 -100 132 0 
1 38 -32 0 
1 47 155 0 
1 137 -115 0 
1 -183 -17 0 
1 -164 100 0 
1 -60 112 0 
1 -39 58 0 
1 179 -159 0 
1 -159 -75 0 
1 102 44 0 
1 184 -193 0 
1 -166 -100 0 
1 -137 8 0 
1 -186 -179 0 
1 -143 108 0 
1 -118 69 0 
1 106 -98 0 
1 154 147 0 
1 -22 -58 0 
1 164 -150 0 
1 -1 -192 0 
1 -180 61 0 
1 -90 185 0 
1 154 -126 0 
1 175 -76 0 
1 -4 109 0 
1 127 -98 0 
1 -166 -156 0 
1 -95 -59 0 
1 181 -69 0 
1 -9 50 0 
1 12 -46 0 
1 189 -193 0 
1 112 -39 0 
1 -52 166 0 
1 177 -171 0 
1 -76 193 0 
1 -14 -161 0 
1 -135 -118 0 
1 -111 -120 0 
1 133 69 0 
1 -118 -67 0 
1 62 -126 0 
1 175 94 0 
1 -14 -116 0 
